************************************************************************
file with basedata            : j9022_.bas
initial value random generator: 348751043
************************************************************************
projects                      :  1
jobs (incl. supersource/sink ):  92
horizon                       :  486
RESOURCES
  - renewable                 :  4   R
  - nonrenewable              :  0   N
  - doubly constrained        :  0   D
************************************************************************
PROJECT INFORMATION:
pronr.  #jobs rel.date duedate tardcost  MPM-Time
    1     90      0       90       19       90
************************************************************************
PRECEDENCE RELATIONS:
jobnr.    #modes  #successors   successors
   1        1          3           2   3   4
   2        1          3           7  33  35
   3        1          3           5   9  10
   4        1          3           6  20  53
   5        1          3           8  13  14
   6        1          1          14
   7        1          3          12  21  23
   8        1          3          28  46  49
   9        1          3          17  31  45
  10        1          3          11  16  22
  11        1          3          15  18  19
  12        1          2          31  65
  13        1          1          61
  14        1          1          74
  15        1          2          26  44
  16        1          1          25
  17        1          3          24  57  62
  18        1          1          84
  19        1          3          30  55  62
  20        1          3          30  39  63
  21        1          1          91
  22        1          1          82
  23        1          2          32  34
  24        1          3          37  50  59
  25        1          1          38
  26        1          3          27  46  56
  27        1          3          29  60  78
  28        1          1          64
  29        1          1          41
  30        1          2          86  91
  31        1          2          37  82
  32        1          1          42
  33        1          2          40  60
  34        1          1          61
  35        1          3          36  41  47
  36        1          3          39  66  72
  37        1          2          52  74
  38        1          1          61
  39        1          1          43
  40        1          2          71  85
  41        1          1          69
  42        1          2          45  87
  43        1          3          48  68  70
  44        1          2          57  83
  45        1          1          50
  46        1          3          54  70  85
  47        1          3          52  58  75
  48        1          1          50
  49        1          1          51
  50        1          3          67  73  77
  51        1          3          55  58  64
  52        1          2          88  89
  53        1          1          58
  54        1          2          59  62
  55        1          3          56  59  66
  56        1          1          71
  57        1          2          66  82
  58        1          1          79
  59        1          1          65
  60        1          3          68  69  83
  61        1          3          64  67  69
  62        1          1          74
  63        1          2          83  89
  64        1          1          79
  65        1          2          67  81
  66        1          3          70  71  75
  67        1          1          79
  68        1          3          73  76  77
  69        1          1          76
  70        1          2          73  78
  71        1          1          78
  72        1          2          75  77
  73        1          1          80
  74        1          1          76
  75        1          1          85
  76        1          1          80
  77        1          1          80
  78        1          1          86
  79        1          2          90  91
  80        1          1          81
  81        1          1          84
  82        1          1          84
  83        1          1          86
  84        1          1          88
  85        1          2          87  89
  86        1          1          87
  87        1          1          88
  88        1          1          90
  89        1          1          92
  90        1          1          92
  91        1          1          92
  92        1          0        
************************************************************************
REQUESTS/DURATIONS:
jobnr. mode duration  R 1  R 2  R 3  R 4
------------------------------------------------------------------------
  1      1     0       0    0    0    0
  2      1     1       5    3    3    8
  3      1     4       7    4    0    3
  4      1     6       0    5    0    1
  5      1     7       0    0    0    4
  6      1    10       0    0    1    0
  7      1     5       9    0    5    7
  8      1     1       1    0    7    0
  9      1     8       0    0    6    7
 10      1    10       4    0    0    0
 11      1     8       0    5    0    0
 12      1     2       7    6    2    0
 13      1     2       5    0    0    7
 14      1     4       5    0    0    4
 15      1     7       0    0    8    0
 16      1     8       0    0    5   10
 17      1    10       1    0    0    0
 18      1     5       0    0    4    2
 19      1     2       0    0    4    2
 20      1     3       2    3    7    9
 21      1     5       9    9    0    7
 22      1     9       0    0    6    2
 23      1     9       0    8    0   10
 24      1     4       0    0    1   10
 25      1     3       0    1    3    7
 26      1     9       7    3    0    0
 27      1     2       0    0    7    6
 28      1     5       8    0    6    1
 29      1     8       0    0    6    3
 30      1    10       0    0    0    9
 31      1     2       0    7    0    3
 32      1     8       0    0    9    0
 33      1    10       6    0    0    4
 34      1     8       0    9    9    0
 35      1     1       0    4    9    1
 36      1     9       0    0    1    0
 37      1     6      10    0    0    0
 38      1     1       0    8    4    4
 39      1     5       0    6    0    4
 40      1     4       0    0    7    0
 41      1     7       0    0    3    6
 42      1     1       3    3    0    0
 43      1     3      10    0   10    7
 44      1     1       4    0    7    0
 45      1     1       0    0    8    0
 46      1     5       2    6    0    8
 47      1     3       3    0    0    8
 48      1     5       4    0    3    0
 49      1     4       0    9    4    0
 50      1     8       3    3    8    8
 51      1     6       0    0   10   10
 52      1     4       8    7    0    5
 53      1     5       0   10    0    0
 54      1     5       4    1    1    0
 55      1     7      10    7   10    0
 56      1     2       0    0    1    0
 57      1     8       0    2    0    0
 58      1     7      10    0    7    4
 59      1    10       0    0   10    1
 60      1     7       0    4    0    0
 61      1     4       0    3    0    4
 62      1     4       0    5    2    1
 63      1     6       0    9    4    0
 64      1     9       0    0    6    1
 65      1     7       0    0    0    8
 66      1     8       0    7    0    0
 67      1     8       9    5    0    0
 68      1     2       0    1    6    7
 69      1     8       2    0    6    0
 70      1     9       0    4    0    1
 71      1     8       3    3    0    8
 72      1     1      10    0    0    0
 73      1     6       0    7    0    7
 74      1     8       0    0    2    0
 75      1     7       0   10    0    0
 76      1     7       7    0    0    8
 77      1     7       0    6   10    0
 78      1    10       0    5    0    4
 79      1     3       0    3    1    8
 80      1     3       0    0    7    1
 81      1     3       0    6    0    6
 82      1     1       0    0    7    5
 83      1     2       6    8    0    0
 84      1     2       0    0    7    0
 85      1     2       0    0    7    3
 86      1     4       0    5    3    6
 87      1     2       0   10    0    5
 88      1     3       0    0    1    6
 89      1     8       0   10    0    0
 90      1     9       0    0   10    2
 91      1     5       0    0    0    4
 92      1     0       0    0    0    0
************************************************************************
RESOURCEAVAILABILITIES:
  R 1  R 2  R 3  R 4
   22   25   33   26
************************************************************************
